20
75.0
0 19 42.1 7.55
1 18 44.83 6.75
2 17 50.66 10.32
3 16 39.66 6.51
4 15 54.89 8.31
5 14 43.66 8.82
6 13 41.55 9.46
7 12 48.03 11.03
8 11 51.33 8.5
9 10 36.52 7.92
10 9 52.96 6.67
11 8 53.61 10.41
12 7 36.81 10.61
13 6 53.53 7.81
14 5 45.53 7.46
15 4 57.93 4.18
16 3 28.52 11.63
17 2 45.86 4.55
18 1 28.32 5.14
